************************************************************************
file with basedata            : mm37_.bas
initial value random generator: 1951042680
************************************************************************
projects                      :  1
jobs (incl. supersource/sink ):  12
horizon                       :  75
RESOURCES
  - renewable                 :  2   R
  - nonrenewable              :  2   N
  - doubly constrained        :  0   D
************************************************************************
PROJECT INFORMATION:
pronr.  #jobs rel.date duedate tardcost  MPM-Time
    1     10      0       12        8       12
************************************************************************
PRECEDENCE RELATIONS:
jobnr.    #modes  #successors   successors
   0        1          3           1   2   3
   1        3          2           7  10
   2        3          2           4   5
   3        3          2           8  10
   4        3          2           6   9
   5        3          1           8
   6        3          2           7  10
   7        3          1           8
   8        3          1          11
   9        3          1          11
  10        3          1          11
  11        1          0        
************************************************************************
REQUESTS/DURATIONS:
jobnr. mode duration  R 1  R 2  R 3  R 4  E(W 1)  E(W 2)
------------------------------------------------------------------------
  0      1     0       0    0    0    0     0       0
  1      1     2       8    6    3    6    28      18
  2      1     2       8    6    6    6    28      24
  3      1     9       3    6    9   10    81      171
  4      1     3       5    4    5    6    27      33
  5      1     3      10    5    9    7    45      48
  6      1     1       9    7    7    2    16       9
  7      1     1       5    7    4    5    12       9
  8      1     3       6    9    3   10    45      39
  9      1     3       3    6    6    5    27      33
 10      1     2       8    7   10    9    30      38
 11      1     0       0    0    0    0     0       0
************************************************************************
RESOURCEAVAILABILITIES:
  R 1  R 2
   22   100
************************************************************************
RESOURCE LIMITS:
jobnr.  l(R 1)  u(R 1)  l(R 2)  u(R 2)
------------------------------------------------------------------------
  0        0       0       0       0
  1        7      14       5       9
  2        7      14       6      12
  3        5       9      10      19
  4        5       9       6      11
  5        8      15       9      16
  6        9      16       5       9
  7        7      12       5       9
  8        8      15       7      13
  9        5       9       6      11
 10        8      15      10      19
 11        0       0       0       0
************************************************************************
SCENARIOS:
------------------------------------------------------------------------
RESOURCE k = 1
s = 1: (0, 23, 26, 125, 32, 50, 11, 18, 43, 31, 33, 0)
s = 2: (0, 27, 31, 87, 15, 33, 18, 11, 36, 21, 20, 0)
s = 3: (0, 24, 28, 91, 23, 42, 12, 9, 71, 48, 43, 0)
s = 4: (0, 30, 34, 66, 43, 52, 24, 21, 43, 37, 28, 0)
s = 5: (0, 23, 30, 97, 19, 51, 21, 8, 31, 29, 34, 0)
s = 6: (0, 19, 35, 94, 28, 32, 10, 12, 44, 31, 26, 0)
s = 7: (0, 23, 49, 52, 21, 40, 17, 14, 40, 44, 22, 0)
s = 8: (0, 30, 34, 59, 28, 52, 20, 13, 43, 23, 34, 0)
s = 9: (0, 15, 18, 44, 25, 51, 18, 16, 52, 35, 44, 0)
s = 10: (0, 26, 25, 46, 19, 58, 15, 11, 56, 25, 24, 0)
s = 11: (0, 31, 23, 52, 22, 72, 10, 10, 50, 20, 45, 0)
s = 12: (0, 20, 33, 96, 30, 30, 17, 12, 64, 28, 40, 0)
s = 13: (0, 26, 26, 72, 20, 49, 24, 8, 43, 18, 34, 0)
s = 14: (0, 34, 17, 90, 39, 47, 16, 15, 38, 22, 45, 0)
s = 15: (0, 30, 25, 52, 32, 49, 22, 9, 38, 38, 21, 0)
s = 16: (0, 49, 29, 68, 31, 30, 11, 12, 45, 19, 30, 0)
s = 17: (0, 20, 46, 56, 32, 47, 16, 17, 52, 37, 42, 0)
s = 18: (0, 30, 31, 58, 32, 38, 10, 8, 32, 38, 27, 0)
s = 19: (0, 36, 27, 92, 27, 37, 10, 15, 47, 35, 29, 0)
s = 20: (0, 53, 29, 93, 17, 59, 29, 14, 46, 26, 24, 0)
s = 21: (0, 40, 45, 81, 17, 47, 16, 13, 86, 40, 37, 0)
s = 22: (0, 29, 27, 67, 26, 50, 20, 19, 49, 26, 22, 0)
s = 23: (0, 24, 40, 58, 26, 37, 20, 11, 35, 25, 19, 0)
s = 24: (0, 21, 17, 66, 38, 60, 12, 16, 67, 16, 25, 0)
s = 25: (0, 34, 19, 102, 35, 36, 10, 12, 28, 36, 18, 0)
s = 26: (0, 38, 39, 58, 22, 33, 16, 7, 55, 34, 34, 0)
s = 27: (0, 24, 36, 43, 34, 32, 17, 10, 38, 35, 36, 0)
s = 28: (0, 24, 24, 111, 20, 36, 12, 9, 32, 22, 23, 0)
s = 29: (0, 21, 36, 60, 26, 35, 11, 9, 44, 24, 33, 0)
s = 30: (0, 46, 29, 96, 40, 41, 24, 7, 35, 31, 32, 0)
s = 31: (0, 33, 20, 123, 29, 53, 9, 17, 51, 29, 24, 0)
s = 32: (0, 23, 30, 68, 19, 46, 15, 15, 55, 25, 43, 0)
s = 33: (0, 36, 22, 73, 20, 54, 15, 17, 34, 31, 31, 0)
s = 34: (0, 23, 26, 55, 24, 37, 28, 14, 59, 17, 27, 0)
s = 35: (0, 24, 25, 112, 34, 49, 12, 9, 54, 20, 19, 0)
s = 36: (0, 27, 16, 92, 22, 42, 19, 17, 47, 52, 35, 0)
s = 37: (0, 21, 19, 55, 34, 50, 21, 13, 26, 37, 34, 0)
s = 38: (0, 19, 27, 83, 38, 34, 20, 10, 31, 16, 20, 0)
s = 39: (0, 26, 20, 107, 37, 59, 12, 10, 60, 31, 32, 0)
s = 40: (0, 42, 25, 76, 22, 63, 13, 18, 38, 29, 42, 0)
s = 41: (0, 23, 28, 63, 22, 47, 17, 7, 24, 17, 30, 0)
s = 42: (0, 33, 17, 70, 29, 67, 18, 16, 42, 27, 19, 0)
s = 43: (0, 34, 26, 102, 22, 46, 19, 16, 39, 37, 27, 0)
s = 44: (0, 26, 26, 119, 16, 34, 14, 8, 54, 33, 17, 0)
s = 45: (0, 30, 31, 95, 19, 70, 14, 10, 52, 26, 29, 0)
s = 46: (0, 22, 42, 77, 22, 32, 14, 12, 56, 40, 46, 0)
s = 47: (0, 36, 42, 46, 34, 30, 12, 10, 38, 34, 35, 0)
s = 48: (0, 19, 30, 89, 24, 46, 11, 17, 41, 23, 51, 0)
s = 49: (0, 26, 28, 84, 18, 40, 13, 16, 24, 16, 26, 0)
s = 50: (0, 26, 30, 85, 20, 37, 12, 11, 69, 21, 36, 0)
s = 51: (0, 19, 42, 76, 33, 46, 13, 10, 43, 23, 47, 0)
s = 52: (0, 39, 23, 73, 30, 33, 17, 8, 30, 25, 46, 0)
s = 53: (0, 25, 32, 114, 21, 44, 14, 9, 40, 27, 23, 0)
s = 54: (0, 30, 19, 58, 34, 58, 11, 18, 62, 22, 31, 0)
s = 55: (0, 30, 48, 56, 34, 59, 11, 13, 41, 29, 22, 0)
s = 56: (0, 23, 32, 53, 24, 48, 20, 11, 72, 49, 33, 0)
s = 57: (0, 21, 19, 73, 19, 49, 23, 10, 51, 27, 30, 0)
s = 58: (0, 21, 44, 66, 24, 29, 15, 12, 71, 34, 24, 0)
s = 59: (0, 24, 37, 64, 31, 46, 22, 7, 58, 33, 31, 0)
s = 60: (0, 29, 22, 71, 18, 55, 17, 19, 43, 27, 19, 0)
s = 61: (0, 23, 29, 145, 23, 70, 16, 9, 37, 22, 44, 0)
s = 62: (0, 24, 35, 85, 27, 49, 17, 14, 32, 25, 52, 0)
s = 63: (0, 28, 24, 73, 21, 24, 14, 8, 60, 34, 24, 0)
s = 64: (0, 30, 18, 56, 31, 51, 14, 10, 30, 15, 50, 0)
s = 65: (0, 42, 16, 79, 21, 50, 26, 17, 47, 28, 29, 0)
s = 66: (0, 32, 39, 70, 20, 28, 16, 8, 34, 27, 29, 0)
s = 67: (0, 17, 25, 46, 15, 39, 18, 15, 42, 30, 23, 0)
s = 68: (0, 19, 26, 120, 30, 27, 16, 10, 49, 31, 24, 0)
s = 69: (0, 32, 20, 58, 25, 47, 17, 8, 45, 15, 31, 0)
s = 70: (0, 32, 21, 102, 37, 48, 20, 9, 34, 28, 21, 0)
s = 71: (0, 20, 26, 69, 30, 49, 10, 18, 30, 25, 32, 0)
s = 72: (0, 27, 31, 78, 39, 50, 10, 14, 33, 31, 19, 0)
s = 73: (0, 38, 36, 74, 36, 32, 21, 16, 49, 18, 38, 0)
s = 74: (0, 41, 41, 98, 28, 49, 17, 13, 30, 24, 26, 0)
s = 75: (0, 41, 30, 81, 29, 42, 10, 18, 35, 25, 26, 0)
s = 76: (0, 20, 35, 65, 24, 28, 25, 9, 47, 36, 32, 0)
s = 77: (0, 31, 24, 87, 21, 42, 15, 11, 37, 27, 23, 0)
s = 78: (0, 29, 27, 56, 22, 41, 12, 9, 48, 33, 28, 0)
s = 79: (0, 23, 28, 83, 41, 61, 15, 11, 53, 33, 44, 0)
s = 80: (0, 19, 21, 71, 21, 34, 19, 10, 56, 29, 19, 0)
s = 81: (0, 40, 36, 50, 28, 39, 23, 8, 62, 41, 26, 0)
s = 82: (0, 28, 48, 75, 19, 50, 19, 11, 29, 24, 25, 0)
s = 83: (0, 22, 16, 115, 33, 51, 28, 11, 43, 36, 30, 0)
s = 84: (0, 32, 27, 71, 21, 51, 17, 17, 45, 25, 18, 0)
s = 85: (0, 27, 46, 110, 16, 40, 18, 9, 47, 29, 18, 0)
s = 86: (0, 26, 26, 83, 25, 38, 15, 17, 35, 24, 44, 0)
s = 87: (0, 29, 39, 66, 21, 61, 18, 10, 47, 21, 48, 0)
s = 88: (0, 31, 45, 81, 20, 63, 15, 15, 59, 32, 20, 0)
s = 89: (0, 20, 27, 83, 24, 51, 21, 10, 59, 38, 45, 0)
s = 90: (0, 22, 34, 68, 24, 34, 16, 7, 28, 23, 34, 0)
s = 91: (0, 26, 31, 141, 28, 45, 19, 11, 41, 17, 23, 0)
s = 92: (0, 18, 43, 70, 26, 51, 12, 11, 57, 24, 35, 0)
s = 93: (0, 22, 33, 110, 28, 47, 17, 8, 44, 26, 32, 0)
s = 94: (0, 21, 33, 84, 32, 24, 19, 17, 58, 22, 29, 0)
s = 95: (0, 24, 26, 89, 46, 38, 14, 14, 29, 44, 20, 0)
s = 96: (0, 35, 35, 64, 24, 44, 14, 9, 35, 38, 27, 0)
s = 97: (0, 22, 41, 111, 28, 38, 24, 14, 48, 26, 30, 0)
s = 98: (0, 39, 24, 46, 24, 45, 10, 12, 31, 23, 22, 0)
s = 99: (0, 25, 25, 77, 22, 81, 19, 22, 29, 29, 45, 0)
s = 100: (0, 27, 27, 76, 33, 69, 17, 14, 28, 32, 23, 0)
s = 101: (0, 42, 20, 59, 17, 40, 17, 13, 65, 17, 26, 0)
s = 102: (0, 21, 36, 82, 25, 59, 13, 9, 55, 30, 24, 0)
s = 103: (0, 35, 40, 96, 28, 28, 16, 13, 37, 22, 22, 0)
s = 104: (0, 21, 18, 59, 24, 48, 20, 10, 48, 22, 34, 0)
s = 105: (0, 35, 48, 55, 30, 62, 12, 10, 50, 16, 34, 0)
s = 106: (0, 21, 23, 82, 26, 38, 17, 13, 47, 47, 41, 0)
s = 107: (0, 43, 28, 59, 28, 41, 12, 17, 36, 25, 36, 0)
s = 108: (0, 26, 38, 69, 21, 43, 14, 10, 52, 35, 37, 0)
s = 109: (0, 46, 20, 50, 16, 31, 11, 9, 32, 36, 39, 0)
s = 110: (0, 41, 31, 60, 26, 53, 11, 13, 40, 15, 32, 0)
s = 111: (0, 31, 47, 93, 26, 54, 18, 11, 31, 23, 36, 0)
s = 112: (0, 26, 41, 94, 35, 34, 13, 17, 42, 36, 26, 0)
s = 113: (0, 28, 30, 72, 18, 53, 11, 10, 51, 38, 26, 0)
s = 114: (0, 37, 21, 68, 26, 27, 9, 11, 28, 29, 47, 0)
s = 115: (0, 31, 27, 77, 27, 38, 23, 11, 32, 18, 28, 0)
s = 116: (0, 28, 24, 109, 32, 37, 13, 18, 42, 25, 44, 0)
s = 117: (0, 43, 34, 83, 20, 50, 16, 11, 51, 29, 20, 0)
s = 118: (0, 32, 24, 54, 35, 58, 13, 10, 64, 26, 38, 0)
s = 119: (0, 31, 18, 80, 38, 45, 23, 14, 41, 30, 38, 0)
s = 120: (0, 24, 26, 78, 24, 39, 11, 9, 45, 32, 29, 0)
s = 121: (0, 23, 28, 55, 24, 52, 17, 7, 37, 17, 25, 0)
s = 122: (0, 26, 38, 75, 24, 60, 14, 11, 55, 21, 24, 0)
s = 123: (0, 33, 33, 115, 17, 48, 25, 10, 32, 35, 24, 0)
s = 124: (0, 42, 36, 97, 19, 44, 20, 8, 27, 42, 29, 0)
s = 125: (0, 21, 36, 79, 17, 48, 17, 13, 32, 31, 38, 0)
s = 126: (0, 44, 33, 81, 40, 40, 10, 12, 72, 23, 20, 0)
s = 127: (0, 38, 34, 66, 26, 36, 13, 9, 38, 17, 22, 0)
s = 128: (0, 29, 40, 60, 29, 36, 16, 10, 43, 30, 27, 0)
s = 129: (0, 42, 24, 125, 21, 32, 16, 10, 58, 27, 32, 0)
s = 130: (0, 21, 22, 76, 31, 38, 15, 11, 42, 33, 26, 0)
s = 131: (0, 27, 24, 99, 47, 29, 12, 13, 46, 27, 50, 0)
s = 132: (0, 23, 23, 129, 29, 41, 13, 15, 44, 23, 38, 0)
s = 133: (0, 23, 33, 118, 20, 49, 19, 13, 45, 29, 20, 0)
s = 134: (0, 30, 23, 85, 26, 41, 10, 13, 47, 19, 24, 0)
s = 135: (0, 24, 31, 95, 19, 62, 18, 16, 61, 18, 41, 0)
s = 136: (0, 36, 27, 52, 19, 45, 14, 12, 39, 23, 44, 0)
s = 137: (0, 33, 20, 77, 20, 78, 23, 18, 30, 35, 40, 0)
s = 138: (0, 22, 34, 47, 24, 31, 19, 13, 57, 27, 39, 0)
s = 139: (0, 45, 39, 93, 18, 29, 10, 9, 54, 43, 43, 0)
s = 140: (0, 30, 36, 60, 28, 26, 11, 8, 80, 25, 30, 0)
s = 141: (0, 20, 30, 103, 32, 26, 10, 9, 54, 28, 23, 0)
s = 142: (0, 27, 24, 69, 23, 50, 22, 17, 46, 19, 24, 0)
s = 143: (0, 28, 43, 88, 43, 34, 10, 13, 27, 27, 34, 0)
s = 144: (0, 45, 28, 69, 22, 67, 14, 10, 39, 45, 19, 0)
s = 145: (0, 40, 43, 88, 18, 37, 19, 12, 46, 35, 45, 0)
s = 146: (0, 36, 32, 62, 32, 37, 14, 13, 41, 50, 21, 0)
s = 147: (0, 38, 39, 64, 28, 64, 15, 19, 55, 32, 24, 0)
s = 148: (0, 41, 35, 88, 35, 55, 17, 10, 74, 28, 30, 0)
s = 149: (0, 20, 19, 47, 23, 38, 12, 17, 52, 37, 28, 0)
s = 150: (0, 19, 36, 70, 18, 34, 19, 10, 59, 22, 21, 0)
s = 151: (0, 15, 20, 113, 31, 60, 15, 21, 42, 22, 19, 0)
s = 152: (0, 21, 19, 63, 25, 68, 20, 8, 43, 21, 44, 0)
s = 153: (0, 21, 25, 84, 27, 53, 18, 17, 34, 21, 24, 0)
s = 154: (0, 36, 18, 53, 46, 41, 20, 11, 56, 25, 25, 0)
s = 155: (0, 20, 31, 60, 18, 50, 13, 13, 49, 27, 40, 0)
s = 156: (0, 35, 23, 48, 26, 35, 13, 10, 47, 32, 35, 0)
s = 157: (0, 30, 18, 54, 37, 47, 15, 13, 44, 27, 42, 0)
s = 158: (0, 29, 41, 90, 35, 39, 17, 7, 60, 17, 48, 0)
s = 159: (0, 21, 24, 86, 28, 33, 19, 14, 42, 29, 26, 0)
s = 160: (0, 29, 26, 106, 19, 31, 11, 11, 31, 32, 32, 0)
s = 161: (0, 34, 22, 104, 15, 47, 19, 17, 39, 37, 47, 0)
s = 162: (0, 23, 17, 132, 24, 54, 21, 12, 43, 24, 29, 0)
s = 163: (0, 32, 22, 91, 36, 37, 12, 16, 26, 39, 24, 0)
s = 164: (0, 20, 39, 65, 32, 55, 14, 24, 47, 35, 33, 0)
s = 165: (0, 31, 23, 109, 28, 43, 15, 10, 43, 24, 23, 0)
s = 166: (0, 42, 18, 54, 43, 28, 17, 11, 45, 28, 35, 0)
s = 167: (0, 28, 39, 55, 30, 38, 26, 15, 57, 27, 23, 0)
s = 168: (0, 32, 29, 51, 29, 74, 13, 14, 50, 40, 24, 0)
s = 169: (0, 27, 26, 100, 24, 62, 15, 13, 29, 31, 17, 0)
s = 170: (0, 33, 27, 68, 21, 68, 23, 17, 36, 21, 29, 0)
s = 171: (0, 24, 20, 98, 36, 38, 10, 13, 28, 18, 30, 0)
s = 172: (0, 34, 22, 52, 24, 61, 16, 11, 72, 22, 35, 0)
s = 173: (0, 21, 38, 68, 33, 48, 11, 10, 35, 20, 22, 0)
s = 174: (0, 20, 39, 77, 32, 32, 13, 7, 52, 30, 36, 0)
s = 175: (0, 30, 21, 99, 25, 41, 18, 8, 46, 19, 32, 0)
s = 176: (0, 18, 37, 79, 48, 72, 16, 10, 30, 20, 23, 0)
s = 177: (0, 35, 35, 87, 19, 59, 15, 20, 48, 15, 19, 0)
s = 178: (0, 38, 24, 78, 18, 79, 14, 10, 38, 22, 32, 0)
s = 179: (0, 21, 39, 87, 20, 45, 11, 12, 42, 25, 35, 0)
s = 180: (0, 36, 29, 95, 25, 65, 18, 17, 49, 28, 32, 0)
s = 181: (0, 28, 29, 71, 26, 42, 16, 14, 28, 22, 21, 0)
s = 182: (0, 28, 25, 118, 29, 56, 13, 13, 46, 36, 29, 0)
s = 183: (0, 20, 21, 83, 20, 37, 15, 10, 36, 31, 38, 0)
s = 184: (0, 33, 18, 109, 37, 43, 16, 11, 42, 25, 36, 0)
s = 185: (0, 31, 21, 56, 19, 55, 18, 15, 50, 31, 39, 0)
s = 186: (0, 27, 41, 72, 31, 44, 23, 13, 33, 28, 25, 0)
s = 187: (0, 20, 33, 71, 22, 36, 20, 8, 27, 22, 24, 0)
s = 188: (0, 21, 18, 90, 24, 39, 22, 13, 53, 22, 29, 0)
s = 189: (0, 23, 46, 58, 17, 54, 11, 14, 38, 27, 18, 0)
s = 190: (0, 28, 32, 82, 27, 63, 23, 8, 42, 29, 24, 0)
s = 191: (0, 25, 33, 51, 48, 29, 13, 18, 31, 26, 23, 0)
s = 192: (0, 18, 22, 117, 18, 25, 26, 9, 38, 18, 20, 0)
s = 193: (0, 24, 39, 94, 23, 49, 11, 12, 38, 44, 27, 0)
s = 194: (0, 37, 32, 69, 30, 40, 21, 9, 38, 16, 29, 0)
s = 195: (0, 22, 21, 89, 36, 29, 21, 14, 53, 25, 41, 0)
s = 196: (0, 25, 44, 96, 21, 57, 11, 7, 37, 21, 24, 0)
s = 197: (0, 46, 27, 70, 37, 34, 11, 10, 43, 40, 24, 0)
s = 198: (0, 29, 30, 94, 47, 44, 26, 14, 39, 34, 28, 0)
s = 199: (0, 34, 22, 114, 26, 44, 14, 13, 32, 37, 45, 0)
s = 200: (0, 31, 34, 108, 24, 42, 14, 10, 84, 23, 22, 0)
------------------------------------------------------------------------
RESOURCE k = 2
s = 1: (0, 15, 22, 264, 39, 54, 6, 13, 37, 38, 41, 0)
s = 2: (0, 18, 26, 182, 18, 35, 10, 8, 31, 25, 26, 0)
s = 3: (0, 16, 24, 191, 28, 44, 7, 7, 62, 59, 55, 0)
s = 4: (0, 19, 29, 139, 53, 55, 14, 16, 37, 45, 35, 0)
s = 5: (0, 15, 26, 204, 24, 55, 12, 6, 27, 36, 43, 0)
s = 6: (0, 12, 30, 197, 34, 34, 6, 9, 39, 38, 33, 0)
s = 7: (0, 15, 42, 108, 26, 43, 10, 11, 34, 53, 28, 0)
s = 8: (0, 20, 29, 124, 34, 55, 12, 10, 37, 28, 43, 0)
s = 9: (0, 10, 16, 92, 31, 54, 10, 12, 45, 43, 55, 0)
s = 10: (0, 17, 21, 97, 23, 62, 9, 8, 49, 30, 31, 0)
s = 11: (0, 20, 20, 109, 27, 77, 6, 8, 44, 25, 57, 0)
s = 12: (0, 13, 28, 202, 36, 32, 10, 9, 56, 34, 51, 0)
s = 13: (0, 17, 23, 151, 24, 52, 14, 6, 37, 21, 43, 0)
s = 14: (0, 22, 15, 189, 48, 50, 9, 12, 33, 26, 57, 0)
s = 15: (0, 19, 22, 109, 40, 52, 13, 7, 33, 46, 27, 0)
s = 16: (0, 32, 25, 143, 37, 32, 7, 9, 39, 24, 38, 0)
s = 17: (0, 13, 39, 117, 40, 50, 9, 13, 45, 46, 53, 0)
s = 18: (0, 20, 26, 121, 39, 40, 6, 6, 28, 46, 34, 0)
s = 19: (0, 23, 24, 194, 33, 40, 6, 11, 41, 43, 36, 0)
s = 20: (0, 34, 25, 197, 20, 63, 17, 11, 40, 32, 31, 0)
s = 21: (0, 26, 39, 170, 21, 51, 9, 10, 74, 49, 47, 0)
s = 22: (0, 19, 23, 142, 32, 53, 11, 14, 42, 32, 27, 0)
s = 23: (0, 16, 35, 123, 32, 39, 12, 8, 31, 31, 24, 0)
s = 24: (0, 14, 15, 139, 47, 64, 7, 12, 58, 19, 32, 0)
s = 25: (0, 22, 16, 216, 43, 39, 6, 9, 25, 44, 23, 0)
s = 26: (0, 25, 34, 122, 26, 35, 9, 5, 47, 41, 42, 0)
s = 27: (0, 16, 31, 90, 41, 34, 10, 8, 33, 43, 45, 0)
s = 28: (0, 15, 20, 234, 25, 38, 7, 7, 28, 26, 29, 0)
s = 29: (0, 14, 31, 126, 31, 37, 6, 7, 38, 29, 42, 0)
s = 30: (0, 30, 25, 203, 49, 44, 14, 6, 31, 38, 41, 0)
s = 31: (0, 21, 17, 259, 35, 56, 6, 13, 44, 36, 30, 0)
s = 32: (0, 15, 26, 143, 24, 49, 9, 11, 47, 31, 54, 0)
s = 33: (0, 23, 19, 154, 24, 57, 9, 13, 30, 38, 39, 0)
s = 34: (0, 15, 23, 115, 29, 40, 16, 11, 51, 21, 34, 0)
s = 35: (0, 16, 22, 235, 42, 52, 7, 7, 47, 24, 24, 0)
s = 36: (0, 17, 13, 194, 27, 45, 11, 13, 40, 64, 45, 0)
s = 37: (0, 14, 17, 116, 41, 53, 12, 10, 23, 45, 43, 0)
s = 38: (0, 13, 23, 174, 46, 36, 11, 8, 27, 20, 25, 0)
s = 39: (0, 17, 18, 226, 46, 63, 7, 8, 52, 38, 40, 0)
s = 40: (0, 27, 21, 159, 27, 67, 7, 13, 33, 35, 53, 0)
s = 41: (0, 15, 24, 132, 26, 50, 10, 5, 21, 21, 38, 0)
s = 42: (0, 21, 15, 148, 36, 72, 11, 12, 37, 33, 24, 0)
s = 43: (0, 22, 23, 216, 27, 49, 11, 12, 34, 45, 34, 0)
s = 44: (0, 17, 22, 250, 20, 36, 8, 6, 47, 41, 21, 0)
s = 45: (0, 19, 27, 199, 23, 74, 8, 7, 45, 32, 37, 0)
s = 46: (0, 14, 36, 162, 27, 35, 8, 9, 49, 48, 58, 0)
s = 47: (0, 23, 36, 97, 42, 32, 7, 7, 33, 41, 44, 0)
s = 48: (0, 12, 26, 188, 29, 49, 6, 13, 36, 28, 64, 0)
s = 49: (0, 17, 24, 176, 22, 42, 7, 12, 21, 19, 33, 0)
s = 50: (0, 17, 26, 179, 24, 39, 7, 9, 60, 26, 45, 0)
s = 51: (0, 12, 36, 160, 41, 49, 7, 8, 37, 28, 60, 0)
s = 52: (0, 25, 20, 154, 36, 35, 10, 6, 26, 31, 58, 0)
s = 53: (0, 16, 27, 239, 26, 47, 8, 7, 34, 33, 29, 0)
s = 54: (0, 20, 16, 121, 41, 62, 6, 13, 54, 27, 40, 0)
s = 55: (0, 19, 41, 118, 41, 63, 6, 10, 36, 35, 28, 0)
s = 56: (0, 15, 27, 110, 29, 51, 11, 8, 63, 60, 42, 0)
s = 57: (0, 14, 16, 153, 23, 52, 13, 8, 44, 33, 38, 0)
s = 58: (0, 14, 38, 140, 29, 31, 9, 9, 61, 41, 31, 0)
s = 59: (0, 16, 32, 135, 38, 49, 12, 6, 50, 41, 39, 0)
s = 60: (0, 19, 19, 150, 22, 58, 10, 15, 37, 33, 24, 0)
s = 61: (0, 15, 25, 305, 28, 75, 9, 7, 32, 27, 56, 0)
s = 62: (0, 16, 30, 179, 32, 52, 10, 11, 27, 31, 66, 0)
s = 63: (0, 18, 20, 154, 25, 25, 8, 6, 52, 41, 30, 0)
s = 64: (0, 19, 16, 119, 37, 54, 8, 8, 26, 19, 63, 0)
s = 65: (0, 27, 14, 165, 25, 53, 15, 13, 41, 34, 37, 0)
s = 66: (0, 20, 34, 147, 24, 29, 9, 6, 29, 33, 37, 0)
s = 67: (0, 11, 22, 96, 19, 41, 10, 12, 37, 37, 29, 0)
s = 68: (0, 12, 23, 252, 37, 28, 9, 7, 42, 38, 30, 0)
s = 69: (0, 21, 17, 123, 31, 50, 10, 6, 39, 18, 39, 0)
s = 70: (0, 20, 18, 214, 45, 52, 12, 7, 29, 35, 27, 0)
s = 71: (0, 13, 22, 146, 36, 53, 6, 14, 26, 30, 41, 0)
s = 72: (0, 17, 27, 165, 48, 54, 6, 11, 29, 38, 24, 0)
s = 73: (0, 25, 31, 155, 44, 34, 12, 12, 43, 22, 48, 0)
s = 74: (0, 27, 35, 207, 34, 52, 10, 10, 26, 30, 33, 0)
s = 75: (0, 26, 26, 170, 35, 45, 6, 13, 31, 30, 33, 0)
s = 76: (0, 13, 30, 137, 29, 30, 14, 7, 41, 44, 41, 0)
s = 77: (0, 20, 21, 183, 25, 45, 8, 8, 32, 33, 29, 0)
s = 78: (0, 19, 23, 117, 27, 44, 7, 7, 42, 40, 35, 0)
s = 79: (0, 15, 24, 175, 49, 65, 9, 9, 46, 40, 56, 0)
s = 80: (0, 13, 18, 148, 25, 37, 11, 8, 48, 35, 24, 0)
s = 81: (0, 26, 31, 105, 35, 42, 13, 6, 53, 50, 33, 0)
s = 82: (0, 18, 41, 157, 23, 53, 11, 8, 25, 29, 31, 0)
s = 83: (0, 14, 14, 242, 40, 55, 16, 8, 37, 44, 38, 0)
s = 84: (0, 21, 24, 150, 25, 55, 10, 13, 39, 31, 22, 0)
s = 85: (0, 17, 39, 232, 20, 42, 10, 7, 41, 36, 23, 0)
s = 86: (0, 17, 22, 174, 31, 40, 9, 13, 30, 29, 56, 0)
s = 87: (0, 19, 33, 139, 26, 65, 10, 7, 41, 25, 60, 0)
s = 88: (0, 20, 39, 170, 24, 67, 9, 12, 51, 39, 25, 0)
s = 89: (0, 13, 23, 175, 29, 55, 12, 8, 51, 47, 57, 0)
s = 90: (0, 14, 30, 142, 30, 36, 9, 6, 24, 28, 42, 0)
s = 91: (0, 17, 26, 297, 34, 48, 11, 8, 35, 20, 29, 0)
s = 92: (0, 12, 37, 148, 31, 54, 7, 9, 50, 29, 45, 0)
s = 93: (0, 14, 29, 232, 34, 50, 10, 6, 39, 32, 41, 0)
s = 94: (0, 13, 29, 176, 39, 26, 11, 13, 50, 27, 37, 0)
s = 95: (0, 15, 22, 188, 56, 41, 8, 10, 25, 54, 26, 0)
s = 96: (0, 23, 30, 135, 29, 47, 8, 7, 30, 46, 34, 0)
s = 97: (0, 14, 35, 234, 34, 41, 14, 10, 42, 32, 38, 0)
s = 98: (0, 25, 20, 97, 29, 47, 6, 9, 27, 28, 28, 0)
s = 99: (0, 16, 22, 161, 27, 87, 11, 16, 26, 35, 57, 0)
s = 100: (0, 18, 23, 161, 40, 73, 10, 11, 24, 39, 29, 0)
s = 101: (0, 27, 17, 123, 21, 43, 10, 10, 56, 20, 33, 0)
s = 102: (0, 14, 31, 173, 30, 63, 7, 7, 48, 36, 30, 0)
s = 103: (0, 23, 35, 202, 34, 30, 9, 10, 32, 27, 28, 0)
s = 104: (0, 14, 16, 123, 30, 51, 12, 8, 42, 27, 43, 0)
s = 105: (0, 23, 42, 116, 36, 66, 7, 8, 43, 20, 43, 0)
s = 106: (0, 14, 20, 174, 32, 41, 10, 10, 40, 57, 52, 0)
s = 107: (0, 28, 24, 123, 34, 44, 7, 13, 31, 30, 46, 0)
s = 108: (0, 17, 33, 145, 26, 46, 8, 8, 46, 43, 46, 0)
s = 109: (0, 30, 17, 104, 20, 33, 6, 7, 27, 44, 50, 0)
s = 110: (0, 27, 27, 125, 31, 56, 6, 10, 35, 19, 40, 0)
s = 111: (0, 20, 40, 196, 32, 57, 10, 9, 27, 29, 45, 0)
s = 112: (0, 17, 35, 199, 43, 36, 7, 13, 37, 44, 32, 0)
s = 113: (0, 18, 26, 150, 22, 56, 6, 8, 44, 46, 32, 0)
s = 114: (0, 24, 18, 143, 32, 29, 6, 8, 24, 35, 60, 0)
s = 115: (0, 20, 23, 162, 33, 40, 13, 9, 28, 22, 35, 0)
s = 116: (0, 18, 21, 230, 39, 40, 7, 14, 37, 31, 55, 0)
s = 117: (0, 28, 29, 174, 24, 53, 9, 9, 44, 36, 25, 0)
s = 118: (0, 21, 21, 113, 43, 61, 7, 8, 56, 32, 48, 0)
s = 119: (0, 20, 16, 168, 47, 48, 13, 11, 36, 37, 47, 0)
s = 120: (0, 15, 23, 165, 29, 42, 7, 7, 39, 39, 37, 0)
s = 121: (0, 15, 24, 116, 30, 55, 10, 5, 32, 21, 32, 0)
s = 122: (0, 17, 33, 157, 29, 64, 8, 8, 47, 26, 30, 0)
s = 123: (0, 21, 29, 242, 21, 51, 14, 8, 28, 42, 30, 0)
s = 124: (0, 27, 31, 203, 23, 47, 12, 6, 24, 51, 36, 0)
s = 125: (0, 14, 31, 167, 21, 51, 10, 10, 28, 38, 48, 0)
s = 126: (0, 28, 29, 171, 49, 43, 6, 9, 62, 28, 25, 0)
s = 127: (0, 25, 29, 138, 32, 38, 8, 7, 33, 21, 27, 0)
s = 128: (0, 19, 35, 126, 35, 38, 9, 8, 37, 36, 34, 0)
s = 129: (0, 27, 20, 264, 26, 34, 9, 8, 50, 33, 41, 0)
s = 130: (0, 14, 19, 159, 38, 41, 9, 9, 37, 41, 32, 0)
s = 131: (0, 18, 21, 207, 58, 31, 7, 10, 40, 32, 63, 0)
s = 132: (0, 15, 19, 273, 35, 44, 7, 11, 38, 28, 48, 0)
s = 133: (0, 15, 28, 249, 25, 52, 11, 10, 39, 36, 26, 0)
s = 134: (0, 19, 20, 178, 32, 43, 6, 10, 41, 23, 30, 0)
s = 135: (0, 16, 27, 200, 23, 66, 10, 12, 53, 22, 52, 0)
s = 136: (0, 23, 24, 110, 23, 48, 8, 9, 34, 28, 55, 0)
s = 137: (0, 22, 17, 162, 25, 83, 13, 14, 26, 42, 51, 0)
s = 138: (0, 14, 29, 99, 29, 33, 11, 10, 49, 33, 50, 0)
s = 139: (0, 29, 34, 196, 22, 31, 6, 7, 47, 52, 54, 0)
s = 140: (0, 20, 31, 127, 34, 28, 7, 6, 69, 30, 38, 0)
s = 141: (0, 13, 26, 218, 40, 27, 6, 7, 47, 34, 29, 0)
s = 142: (0, 17, 21, 144, 28, 53, 13, 13, 40, 23, 30, 0)
s = 143: (0, 18, 37, 185, 52, 37, 6, 10, 23, 33, 43, 0)
s = 144: (0, 29, 24, 145, 27, 71, 8, 8, 34, 54, 24, 0)
s = 145: (0, 26, 37, 186, 22, 40, 11, 9, 40, 43, 57, 0)
s = 146: (0, 23, 27, 129, 39, 39, 8, 10, 36, 61, 27, 0)
s = 147: (0, 25, 34, 135, 34, 69, 9, 14, 48, 40, 31, 0)
s = 148: (0, 27, 30, 186, 43, 59, 10, 7, 64, 34, 38, 0)
s = 149: (0, 13, 16, 99, 27, 41, 7, 13, 45, 45, 36, 0)
s = 150: (0, 12, 31, 146, 21, 36, 11, 8, 51, 27, 26, 0)
s = 151: (0, 10, 18, 239, 38, 64, 9, 16, 37, 26, 24, 0)
s = 152: (0, 14, 16, 131, 31, 72, 11, 6, 37, 25, 55, 0)
s = 153: (0, 14, 21, 176, 33, 56, 11, 13, 29, 26, 30, 0)
s = 154: (0, 23, 15, 111, 56, 44, 11, 9, 49, 31, 32, 0)
s = 155: (0, 13, 27, 126, 22, 53, 8, 10, 43, 33, 50, 0)
s = 156: (0, 23, 20, 101, 31, 37, 8, 7, 41, 39, 44, 0)
s = 157: (0, 19, 15, 113, 45, 50, 9, 10, 38, 33, 53, 0)
s = 158: (0, 19, 35, 189, 43, 41, 10, 6, 52, 21, 61, 0)
s = 159: (0, 14, 21, 181, 35, 35, 11, 11, 37, 35, 32, 0)
s = 160: (0, 19, 23, 222, 23, 33, 7, 8, 27, 39, 41, 0)
s = 161: (0, 22, 19, 218, 18, 50, 11, 13, 34, 45, 60, 0)
s = 162: (0, 15, 15, 277, 30, 57, 12, 9, 38, 29, 36, 0)
s = 163: (0, 21, 19, 192, 44, 39, 7, 12, 23, 48, 31, 0)
s = 164: (0, 13, 33, 136, 39, 58, 8, 18, 41, 43, 41, 0)
s = 165: (0, 20, 20, 229, 34, 46, 8, 8, 37, 29, 29, 0)
s = 166: (0, 27, 15, 114, 52, 29, 10, 8, 39, 34, 44, 0)
s = 167: (0, 18, 34, 116, 37, 41, 15, 11, 50, 33, 29, 0)
s = 168: (0, 20, 25, 106, 35, 79, 8, 11, 44, 49, 30, 0)
s = 169: (0, 18, 22, 210, 30, 66, 9, 10, 25, 38, 21, 0)
s = 170: (0, 21, 23, 143, 26, 72, 13, 13, 31, 25, 36, 0)
s = 171: (0, 16, 17, 206, 43, 41, 6, 10, 25, 22, 38, 0)
s = 172: (0, 22, 19, 109, 29, 65, 9, 8, 62, 27, 44, 0)
s = 173: (0, 14, 33, 144, 40, 51, 6, 8, 30, 25, 28, 0)
s = 174: (0, 13, 33, 162, 40, 34, 8, 6, 45, 37, 46, 0)
s = 175: (0, 20, 18, 209, 30, 44, 10, 6, 40, 24, 40, 0)
s = 176: (0, 12, 32, 167, 59, 77, 9, 8, 26, 24, 29, 0)
s = 177: (0, 23, 30, 182, 23, 63, 9, 15, 42, 18, 23, 0)
s = 178: (0, 25, 21, 163, 22, 84, 8, 7, 33, 27, 40, 0)
s = 179: (0, 14, 33, 183, 24, 48, 7, 9, 36, 30, 44, 0)
s = 180: (0, 23, 25, 200, 31, 70, 10, 13, 43, 35, 41, 0)
s = 181: (0, 18, 25, 149, 32, 44, 9, 11, 25, 27, 27, 0)
s = 182: (0, 18, 21, 248, 35, 60, 8, 10, 40, 44, 37, 0)
s = 183: (0, 13, 18, 174, 24, 39, 9, 8, 31, 37, 48, 0)
s = 184: (0, 21, 16, 230, 45, 46, 9, 9, 37, 30, 45, 0)
s = 185: (0, 20, 18, 117, 23, 58, 10, 12, 43, 38, 49, 0)
s = 186: (0, 17, 35, 152, 38, 47, 13, 10, 28, 34, 32, 0)
s = 187: (0, 13, 29, 149, 27, 39, 12, 6, 24, 27, 30, 0)
s = 188: (0, 13, 16, 190, 29, 42, 12, 10, 46, 27, 37, 0)
s = 189: (0, 15, 39, 121, 21, 57, 6, 11, 33, 33, 23, 0)
s = 190: (0, 18, 27, 173, 32, 67, 13, 6, 36, 35, 30, 0)
s = 191: (0, 16, 28, 106, 59, 30, 8, 13, 27, 31, 30, 0)
s = 192: (0, 12, 19, 246, 22, 27, 15, 7, 33, 21, 25, 0)
s = 193: (0, 16, 34, 197, 28, 53, 6, 9, 33, 54, 35, 0)
s = 194: (0, 24, 28, 144, 37, 43, 12, 7, 33, 19, 37, 0)
s = 195: (0, 14, 18, 188, 44, 31, 12, 11, 46, 30, 51, 0)
s = 196: (0, 17, 38, 201, 26, 61, 6, 5, 32, 26, 31, 0)
s = 197: (0, 30, 23, 148, 45, 36, 6, 8, 37, 49, 30, 0)
s = 198: (0, 19, 26, 198, 57, 47, 15, 11, 34, 41, 35, 0)
s = 199: (0, 22, 19, 240, 31, 47, 8, 10, 27, 45, 56, 0)
s = 200: (0, 20, 30, 227, 30, 45, 8, 8, 73, 28, 28, 0)
************************************************************************
ES/LS-VALUES:
jobnr.   ES(i)    LS(i)
------------------------------------------------------------------------
  0        0        0
  1        0       63
  2        0       55
  3        0       52
  4        3       59
  5        3       63
  6        8       65
  7        9       67
  8       16       69
  9        8       69
 10       16       71
 11       21       75
************************************************************************
BIG-M-VALUES:
M1 = 60, M2 = 450
************************************************************************
